webassembly/ejemplos_dzn/13/folder13_json_67.dzn
TERM = { '.', 's(2)', 's(4)', 'in_10', 'in_1', 'local_0', 'local_1', 'in_6', 'in_2', 'in_4', 'in_3', 'in_9', 'in_8', 's(1)', 's(0)', 'in_7', 'in_5', 's(3)', 'in_0'};
null = '.';
s = 13;
n = 17;
ndeps = 9;
max_registers_sz = 4;
NR = 1;
registers = [|'local_1', 'in_10'|];
dependencies = [|'call[function_index(0)]_1', 'i32.load_3', |'i32.load_3', 'i32.store8_4', |'i32.store8_4', 'i32.store8_5', |'i32.store8_5', 'i32.store16_6', |'i32.store16_6', 'i32.store8_7', |'i32.store8_7', 'i32.load8_s_8', |'i32.store8_7', 'i32.load8_u_9', |'i32.load8_s_8', 'i32.store16_11', |'i32.load8_u_9', 'i32.store16_11'|];
GET_ENUM = { GET1, GET2, GET3, GET4, GET5};
SET_ENUM = { SET1, SET2, SET3, SET4, SET5};
TEE_ENUM = { TEE1, TEE2, TEE3, TEE4, TEE5};
N = 11;
OP = { 'call[function_index(0)]_1', 'i32.load_3', 'i32.store8_4', 'i32.store8_5', 'i32.store16_6', 'i32.store8_7', 'i32.load8_s_8', 'i32.load8_u_9', 'i32.add_0', 'i32.store16_11', 'local.get_0' };
in_ops = [2, 1, 2, 2, 2, 2, 1, 1, 2, 2, 0 ];
out_ops = [1, 1, 0, 0, 0, 0, 1, 1, 1, 0, 1 ];
in1 = ['local_1', 'local_0', 's(1)', 'in_1', 'in_3', 'in_5', 'in_7', 's(2)', 's(3)', 's(4)', '.' ];
in2 = ['in_0', '.', 's(0)', 'in_2', 'in_4', 'in_6', '.', '.', 'in_8', 'in_9', '.' ];
in3 = ['.', '.', '.', '.', '.', '.', '.', '.', '.', '.', '.' ];
out1 = ['s(0)', 's(1)', '.', '.', '.', '.', 's(2)', 's(3)', 's(4)', '.', 'local_0' ];
out2 = ['.', '.', '.', '.', '.', '.', '.', '.', '.', '.', '.' ];
out3 = ['.', '.', '.', '.', '.', '.', '.', '.', '.', '.', '.' ];
comm = [false, false, false, false, false, false, false, false, true, false, false ];
gas = [1, 1, 1, 1, 1, 1, 1, 1, 1, 1, 1 ];
sz = [1, 1, 1, 1, 1, 1, 1, 1, 1, 1, 1 ];
stor = [true, false, true, true, true, true, false, false, false, true, false ];
lb = [ 1, 1, 1, 1, 1, 1, 1, 1, 1, 1, 1 ];
ub = [ 13, 13, 13, 13, 13, 13, 13, 13, 13, 13, 13 ];
startstack = [ 'in_0', 'in_1', 'in_2', 'in_3', 'in_4', 'in_5', 'in_6', 'in_7', 'in_8', 'in_9', 'in_10', null, null, null, null, null, null ];
endstack = [ null, null, null, null, null, null, null, null, null, null, null, null, null, null, null, null, null ];
